c Generated map
c Size: 15 * 15, weights in range: 1 to 10, walls: True, with ratio 0.05
c dim 3 of 4
c
p sp 225 380
c graph contains 225 nodes and 380 arcs
c
a 1 16 8
a 16 1 8
a 3 18 9
a 18 3 9
a 3 4 1
a 4 3 1
a 4 19 7
a 19 4 7
a 4 5 6
a 5 4 6
a 5 20 8
a 20 5 8
a 5 6 7
a 6 5 7
a 6 21 4
a 21 6 4
a 6 7 2
a 7 6 2
a 7 22 10
a 22 7 10
a 7 8 7
a 8 7 7
a 8 23 7
a 23 8 7
a 8 9 1
a 9 8 1
a 9 24 6
a 24 9 6
a 9 10 8
a 10 9 8
a 10 25 8
a 25 10 8
a 10 11 9
a 11 10 9
a 11 12 7
a 12 11 7
a 12 27 7
a 27 12 7
a 12 13 2
a 13 12 2
a 13 28 4
a 28 13 4
a 13 14 9
a 14 13 9
a 14 29 5
a 29 14 5
a 14 15 4
a 15 14 4
a 15 30 7
a 30 15 7
a 16 31 10
a 31 16 10
a 16 17 6
a 17 16 6
a 17 32 4
a 32 17 4
a 17 18 10
a 18 17 10
a 18 33 1
a 33 18 1
a 18 19 1
a 19 18 1
a 19 34 9
a 34 19 9
a 19 20 10
a 20 19 10
a 20 35 6
a 35 20 6
a 20 21 6
a 21 20 6
a 21 36 1
a 36 21 1
a 21 22 3
a 22 21 3
a 22 37 2
a 37 22 2
a 22 23 4
a 23 22 4
a 23 38 5
a 38 23 5
a 23 24 8
a 24 23 8
a 24 39 1
a 39 24 1
a 24 25 8
a 25 24 8
a 25 40 1
a 40 25 1
a 27 42 3
a 42 27 3
a 27 28 3
a 28 27 3
a 28 43 2
a 43 28 2
a 28 29 7
a 29 28 7
a 29 44 7
a 44 29 7
a 29 30 7
a 30 29 7
a 30 45 2
a 45 30 2
a 31 46 9
a 46 31 9
a 31 32 2
a 32 31 2
a 32 47 8
a 47 32 8
a 32 33 7
a 33 32 7
a 33 48 2
a 48 33 2
a 33 34 5
a 34 33 5
a 34 49 2
a 49 34 2
a 34 35 1
a 35 34 1
a 35 50 8
a 50 35 8
a 35 36 2
a 36 35 2
a 36 51 8
a 51 36 8
a 36 37 8
a 37 36 8
a 37 52 4
a 52 37 4
a 37 38 10
a 38 37 10
a 38 53 6
a 53 38 6
a 38 39 10
a 39 38 10
a 39 54 4
a 54 39 4
a 39 40 10
a 40 39 10
a 40 55 4
a 55 40 4
a 40 41 3
a 41 40 3
a 41 56 5
a 56 41 5
a 41 42 1
a 42 41 1
a 42 57 2
a 57 42 2
a 42 43 7
a 43 42 7
a 43 58 3
a 58 43 3
a 43 44 10
a 44 43 10
a 44 59 9
a 59 44 9
a 44 45 9
a 45 44 9
a 45 60 5
a 60 45 5
a 46 61 7
a 61 46 7
a 46 47 3
a 47 46 3
a 47 62 4
a 62 47 4
a 47 48 10
a 48 47 10
a 48 63 6
a 63 48 6
a 48 49 7
a 49 48 7
a 49 64 3
a 64 49 3
a 49 50 8
a 50 49 8
a 50 65 8
a 65 50 8
a 50 51 5
a 51 50 5
a 51 66 6
a 66 51 6
a 51 52 10
a 52 51 10
a 52 67 6
a 67 52 6
a 52 53 5
a 53 52 5
a 53 68 2
a 68 53 2
a 53 54 5
a 54 53 5
a 54 55 5
a 55 54 5
a 55 70 5
a 70 55 5
a 55 56 5
a 56 55 5
a 56 71 9
a 71 56 9
a 56 57 6
a 57 56 6
a 57 72 10
a 72 57 10
a 57 58 10
a 58 57 10
a 58 73 9
a 73 58 9
a 58 59 5
a 59 58 5
a 59 74 8
a 74 59 8
a 59 60 7
a 60 59 7
a 61 76 10
a 76 61 10
a 61 62 3
a 62 61 3
a 62 77 8
a 77 62 8
a 62 63 4
a 63 62 4
a 63 78 1
a 78 63 1
a 63 64 10
a 64 63 10
a 64 79 1
a 79 64 1
a 64 65 8
a 65 64 8
a 65 80 2
a 80 65 2
a 65 66 7
a 66 65 7
a 66 81 5
a 81 66 5
a 66 67 10
a 67 66 10
a 67 82 2
a 82 67 2
a 67 68 8
a 68 67 8
a 68 83 5
a 83 68 5
a 70 85 6
a 85 70 6
a 70 71 4
a 71 70 4
a 71 86 4
a 86 71 4
a 71 72 10
a 72 71 10
a 72 87 4
a 87 72 4
a 72 73 2
a 73 72 2
a 73 88 9
a 88 73 9
a 73 74 4
a 74 73 4
a 74 89 1
a 89 74 1
a 76 91 2
a 91 76 2
a 76 77 2
a 77 76 2
a 77 92 10
a 92 77 10
a 77 78 7
a 78 77 7
a 78 93 7
a 93 78 7
a 78 79 2
a 79 78 2
a 79 94 7
a 94 79 7
a 79 80 5
a 80 79 5
a 80 95 1
a 95 80 1
a 80 81 10
a 81 80 10
a 81 96 3
a 96 81 3
a 81 82 5
a 82 81 5
a 82 97 5
a 97 82 5
a 82 83 2
a 83 82 2
a 83 98 8
a 98 83 8
a 83 84 7
a 84 83 7
a 84 99 10
a 99 84 10
a 84 85 3
a 85 84 3
a 85 100 4
a 100 85 4
a 85 86 9
a 86 85 9
a 86 101 3
a 101 86 3
a 86 87 4
a 87 86 4
a 87 102 4
a 102 87 4
a 87 88 10
a 88 87 10
a 88 103 3
a 103 88 3
a 88 89 1
a 89 88 1
a 89 104 10
a 104 89 10
a 89 90 7
a 90 89 7
a 90 105 9
a 105 90 9
a 91 106 5
a 106 91 5
a 91 92 10
a 92 91 10
a 92 107 6
a 107 92 6
a 92 93 5
a 93 92 5
a 93 94 5
a 94 93 5
a 94 109 4
a 109 94 4
a 94 95 2
a 95 94 2
a 95 110 7
a 110 95 7
a 95 96 6
a 96 95 6
a 96 111 10
a 111 96 10
a 96 97 2
a 97 96 2
a 97 112 7
a 112 97 7
a 97 98 5
a 98 97 5
a 98 113 7
a 113 98 7
a 98 99 8
a 99 98 8
a 99 114 4
a 114 99 4
a 99 100 10
a 100 99 10
a 100 115 5
a 115 100 5
a 100 101 1
a 101 100 1
a 101 116 3
a 116 101 3
a 101 102 9
a 102 101 9
a 102 117 8
a 117 102 8
a 102 103 2
a 103 102 2
a 103 118 2
a 118 103 2
a 103 104 5
a 104 103 5
a 104 119 3
a 119 104 3
a 104 105 6
a 105 104 6
a 105 120 7
a 120 105 7
a 106 121 4
a 121 106 4
a 106 107 10
a 107 106 10
a 107 122 8
a 122 107 8
a 109 124 2
a 124 109 2
a 109 110 8
a 110 109 8
a 110 125 10
a 125 110 10
a 110 111 10
a 111 110 10
a 111 126 5
a 126 111 5
a 111 112 7
a 112 111 7
a 112 127 3
a 127 112 3
a 112 113 10
a 113 112 10
a 113 128 3
a 128 113 3
a 113 114 6
a 114 113 6
a 114 129 4
a 129 114 4
a 114 115 10
a 115 114 10
a 115 130 2
a 130 115 2
a 115 116 5
a 116 115 5
a 116 131 5
a 131 116 5
a 116 117 5
a 117 116 5
a 117 132 9
a 132 117 9
a 117 118 8
a 118 117 8
a 118 133 5
a 133 118 5
a 118 119 3
a 119 118 3
a 119 134 4
a 134 119 4
a 119 120 1
a 120 119 1
a 120 135 6
a 135 120 6
a 121 136 3
a 136 121 3
a 121 122 3
a 122 121 3
a 122 137 6
a 137 122 6
a 122 123 3
a 123 122 3
a 123 138 4
a 138 123 4
a 123 124 6
a 124 123 6
a 124 139 6
a 139 124 6
a 124 125 2
a 125 124 2
a 125 140 8
a 140 125 8
a 125 126 2
a 126 125 2
a 126 141 3
a 141 126 3
a 126 127 4
a 127 126 4
a 127 142 6
a 142 127 6
a 127 128 10
a 128 127 10
a 128 143 9
a 143 128 9
a 128 129 2
a 129 128 2
a 129 144 5
a 144 129 5
a 129 130 8
a 130 129 8
a 130 145 7
a 145 130 7
a 130 131 7
a 131 130 7
a 131 146 10
a 146 131 10
a 131 132 5
a 132 131 5
a 132 147 1
a 147 132 1
a 132 133 3
a 133 132 3
a 133 148 7
a 148 133 7
a 133 134 1
a 134 133 1
a 134 149 5
a 149 134 5
a 134 135 4
a 135 134 4
a 135 150 3
a 150 135 3
a 136 151 2
a 151 136 2
a 136 137 5
a 137 136 5
a 137 152 7
a 152 137 7
a 137 138 10
a 138 137 10
a 138 153 9
a 153 138 9
a 138 139 3
a 139 138 3
a 139 154 2
a 154 139 2
a 139 140 10
a 140 139 10
a 140 155 7
a 155 140 7
a 140 141 10
a 141 140 10
a 141 156 2
a 156 141 2
a 141 142 7
a 142 141 7
a 142 157 5
a 157 142 5
a 142 143 9
a 143 142 9
a 143 144 8
a 144 143 8
a 144 159 9
a 159 144 9
a 144 145 9
a 145 144 9
a 145 160 7
a 160 145 7
a 145 146 9
a 146 145 9
a 146 161 2
a 161 146 2
a 146 147 3
a 147 146 3
a 147 162 5
a 162 147 5
a 147 148 4
a 148 147 4
a 148 163 10
a 163 148 10
a 148 149 7
a 149 148 7
a 149 164 4
a 164 149 4
a 149 150 9
a 150 149 9
a 150 165 1
a 165 150 1
a 151 166 10
a 166 151 10
a 151 152 2
a 152 151 2
a 152 167 5
a 167 152 5
a 152 153 7
a 153 152 7
a 153 168 1
a 168 153 1
a 153 154 7
a 154 153 7
a 154 169 3
a 169 154 3
a 154 155 7
a 155 154 7
a 155 156 2
a 156 155 2
a 156 171 7
a 171 156 7
a 156 157 5
a 157 156 5
a 157 172 6
a 172 157 6
a 159 174 2
a 174 159 2
a 159 160 9
a 160 159 9
a 160 175 5
a 175 160 5
a 160 161 6
a 161 160 6
a 161 176 2
a 176 161 2
a 161 162 4
a 162 161 4
a 162 177 2
a 177 162 2
a 162 163 7
a 163 162 7
a 163 178 7
a 178 163 7
a 163 164 8
a 164 163 8
a 164 179 6
a 179 164 6
a 164 165 3
a 165 164 3
a 165 180 3
a 180 165 3
a 166 181 4
a 181 166 4
a 166 167 4
a 167 166 4
a 167 182 2
a 182 167 2
a 167 168 2
a 168 167 2
a 168 183 10
a 183 168 10
a 168 169 3
a 169 168 3
a 169 184 3
a 184 169 3
a 171 172 8
a 172 171 8
a 172 187 9
a 187 172 9
a 172 173 4
a 173 172 4
a 173 188 3
a 188 173 3
a 173 174 4
a 174 173 4
a 174 189 6
a 189 174 6
a 174 175 9
a 175 174 9
a 175 190 9
a 190 175 9
a 175 176 8
a 176 175 8
a 176 191 4
a 191 176 4
a 176 177 3
a 177 176 3
a 177 192 10
a 192 177 10
a 177 178 6
a 178 177 6
a 178 193 1
a 193 178 1
a 178 179 8
a 179 178 8
a 179 194 3
a 194 179 3
a 179 180 9
a 180 179 9
a 181 196 1
a 196 181 1
a 181 182 2
a 182 181 2
a 182 197 9
a 197 182 9
a 182 183 6
a 183 182 6
a 183 198 6
a 198 183 6
a 183 184 2
a 184 183 2
a 184 199 3
a 199 184 3
a 184 185 7
a 185 184 7
a 185 200 2
a 200 185 2
a 187 202 4
a 202 187 4
a 187 188 3
a 188 187 3
a 188 189 1
a 189 188 1
a 189 204 10
a 204 189 10
a 189 190 9
a 190 189 9
a 190 205 6
a 205 190 6
a 190 191 5
a 191 190 5
a 191 206 5
a 206 191 5
a 191 192 9
a 192 191 9
a 192 207 6
a 207 192 6
a 192 193 4
a 193 192 4
a 193 208 4
a 208 193 4
a 193 194 6
a 194 193 6
a 194 209 6
a 209 194 6
a 196 211 5
a 211 196 5
a 196 197 5
a 197 196 5
a 197 212 7
a 212 197 7
a 197 198 8
a 198 197 8
a 198 213 5
a 213 198 5
a 198 199 1
a 199 198 1
a 199 214 9
a 214 199 9
a 199 200 1
a 200 199 1
a 200 215 4
a 215 200 4
a 200 201 6
a 201 200 6
a 201 216 4
a 216 201 4
a 201 202 1
a 202 201 1
a 202 217 4
a 217 202 4
a 204 219 1
a 219 204 1
a 204 205 6
a 205 204 6
a 205 220 5
a 220 205 5
a 205 206 8
a 206 205 8
a 206 221 4
a 221 206 4
a 206 207 2
a 207 206 2
a 207 208 5
a 208 207 5
a 208 223 4
a 223 208 4
a 208 209 3
a 209 208 3
a 209 224 5
a 224 209 5
a 209 210 6
a 210 209 6
a 210 225 10
a 225 210 10
a 211 212 6
a 212 211 6
a 212 213 5
a 213 212 5
a 213 214 7
a 214 213 7
a 214 215 7
a 215 214 7
a 215 216 10
a 216 215 10
a 216 217 1
a 217 216 1
a 217 218 7
a 218 217 7
a 218 219 6
a 219 218 6
a 219 220 4
a 220 219 4
a 220 221 10
a 221 220 10
a 223 224 7
a 224 223 7
a 224 225 1
a 225 224 1
